p edge 250 3068
e 0 25
e 0 81
e 0 87
e 0 98
e 0 103
e 0 109
e 0 132
e 0 134
e 0 139
e 0 149
e 0 166
e 0 170
e 0 171
e 0 172
e 0 175
e 0 205
e 0 209
e 0 213
e 0 239
e 0 241
e 0 247
e 1 10
e 1 51
e 1 53
e 1 59
e 1 67
e 1 69
e 1 74
e 1 84
e 1 95
e 1 104
e 1 107
e 1 116
e 1 118
e 1 129
e 1 142
e 1 143
e 1 159
e 1 169
e 1 170
e 1 174
e 1 185
e 1 209
e 1 222
e 1 231
e 1 233
e 2 14
e 2 26
e 2 27
e 2 31
e 2 35
e 2 39
e 2 53
e 2 63
e 2 81
e 2 92
e 2 94
e 2 122
e 2 134
e 2 139
e 2 160
e 2 163
e 2 177
e 2 178
e 2 189
e 2 203
e 2 204
e 2 207
e 2 213
e 2 223
e 2 237
e 2 246
e 3 5
e 3 20
e 3 23
e 3 25
e 3 29
e 3 40
e 3 49
e 3 58
e 3 65
e 3 72
e 3 103
e 3 106
e 3 111
e 3 125
e 3 149
e 3 153
e 3 161
e 3 163
e 3 172
e 3 189
e 3 192
e 3 193
e 3 208
e 3 211
e 3 232
e 3 243
e 4 14
e 4 15
e 4 20
e 4 28
e 4 33
e 4 36
e 4 45
e 4 46
e 4 47
e 4 55
e 4 63
e 4 69
e 4 76
e 4 79
e 4 97
e 4 102
e 4 114
e 4 126
e 4 133
e 4 147
e 4 154
e 4 161
e 4 178
e 4 180
e 4 182
e 4 185
e 4 188
e 4 191
e 4 197
e 4 216
e 4 236
e 4 240
e 4 242
e 5 12
e 5 20
e 5 29
e 5 35
e 5 44
e 5 57
e 5 59
e 5 62
e 5 82
e 5 85
e 5 106
e 5 107
e 5 129
e 5 130
e 5 144
e 5 150
e 5 158
e 5 173
e 5 187
e 5 191
e 5 201
e 5 207
e 5 212
e 5 225
e 6 34
e 6 37
e 6 51
e 6 54
e 6 60
e 6 70
e 6 75
e 6 81
e 6 87
e 6 90
e 6 91
e 6 105
e 6 107
e 6 109
e 6 111
e 6 130
e 6 132
e 6 138
e 6 150
e 6 155
e 6 170
e 6 177
e 6 191
e 6 196
e 6 197
e 6 210
e 6 215
e 6 218
e 6 228
e 7 17
e 7 54
e 7 58
e 7 61
e 7 72
e 7 79
e 7 90
e 7 102
e 7 111
e 7 134
e 7 148
e 7 169
e 7 171
e 7 172
e 7 176
e 7 178
e 7 180
e 7 214
e 7 235
e 8 11
e 8 12
e 8 15
e 8 32
e 8 36
e 8 52
e 8 54
e 8 59
e 8 61
e 8 88
e 8 113
e 8 116
e 8 141
e 8 158
e 8 161
e 8 165
e 8 167
e 8 195
e 8 198
e 8 199
e 8 206
e 8 213
e 8 234
e 8 235
e 8 236
e 9 10
e 9 12
e 9 15
e 9 22
e 9 38
e 9 42
e 9 45
e 9 50
e 9 51
e 9 65
e 9 76
e 9 79
e 9 89
e 9 91
e 9 99
e 9 112
e 9 114
e 9 122
e 9 125
e 9 134
e 9 136
e 9 142
e 9 147
e 9 149
e 9 152
e 9 154
e 9 171
e 9 173
e 9 203
e 9 226
e 9 233
e 9 238
e 10 19
e 10 34
e 10 35
e 10 38
e 10 39
e 10 46
e 10 57
e 10 62
e 10 66
e 10 76
e 10 81
e 10 103
e 10 119
e 10 133
e 10 135
e 10 137
e 10 144
e 10 169
e 10 181
e 10 196
e 10 207
e 10 237
e 10 242
e 11 18
e 11 20
e 11 22
e 11 35
e 11 49
e 11 72
e 11 80
e 11 83
e 11 89
e 11 107
e 11 110
e 11 112
e 11 117
e 11 118
e 11 119
e 11 129
e 11 131
e 11 180
e 11 181
e 11 205
e 11 207
e 11 223
e 11 228
e 11 239
e 11 244
e 11 245
e 11 247
e 12 13
e 12 36
e 12 50
e 12 52
e 12 61
e 12 71
e 12 77
e 12 86
e 12 100
e 12 106
e 12 152
e 12 172
e 12 185
e 12 192
e 12 200
e 12 212
e 12 218
e 12 219
e 12 229
e 12 235
e 12 236
e 13 36
e 13 38
e 13 41
e 13 46
e 13 50
e 13 64
e 13 73
e 13 77
e 13 91
e 13 97
e 13 108
e 13 121
e 13 124
e 13 167
e 13 171
e 13 191
e 13 196
e 13 204
e 13 205
e 13 212
e 13 239
e 13 241
e 13 246
e 14 21
e 14 24
e 14 28
e 14 32
e 14 33
e 14 36
e 14 54
e 14 56
e 14 61
e 14 63
e 14 68
e 14 69
e 14 81
e 14 95
e 14 110
e 14 144
e 14 149
e 14 159
e 14 175
e 14 205
e 14 206
e 14 210
e 14 242
e 15 22
e 15 32
e 15 33
e 15 38
e 15 41
e 15 44
e 15 56
e 15 61
e 15 80
e 15 139
e 15 155
e 15 158
e 15 171
e 15 192
e 15 209
e 15 221
e 15 244
e 15 249
e 16 31
e 16 33
e 16 35
e 16 47
e 16 55
e 16 75
e 16 101
e 16 111
e 16 173
e 16 184
e 16 185
e 16 187
e 16 188
e 16 190
e 16 210
e 16 215
e 16 239
e 16 249
e 17 34
e 17 39
e 17 41
e 17 47
e 17 63
e 17 76
e 17 80
e 17 96
e 17 99
e 17 100
e 17 101
e 17 111
e 17 113
e 17 115
e 17 122
e 17 124
e 17 141
e 17 145
e 17 165
e 17 175
e 17 182
e 17 195
e 17 220
e 17 224
e 17 248
e 18 20
e 18 22
e 18 24
e 18 32
e 18 39
e 18 68
e 18 82
e 18 90
e 18 91
e 18 105
e 18 113
e 18 115
e 18 117
e 18 132
e 18 134
e 18 139
e 18 152
e 18 153
e 18 154
e 18 163
e 18 186
e 18 187
e 18 192
e 18 197
e 18 203
e 18 208
e 18 215
e 18 230
e 18 244
e 18 246
e 19 25
e 19 45
e 19 49
e 19 53
e 19 59
e 19 76
e 19 78
e 19 84
e 19 85
e 19 88
e 19 103
e 19 105
e 19 110
e 19 114
e 19 188
e 19 192
e 19 201
e 19 209
e 19 213
e 19 215
e 19 226
e 19 232
e 19 233
e 19 235
e 20 50
e 20 58
e 20 106
e 20 108
e 20 122
e 20 125
e 20 142
e 20 180
e 20 192
e 20 193
e 20 203
e 20 212
e 20 240
e 20 249
e 21 38
e 21 44
e 21 60
e 21 72
e 21 81
e 21 85
e 21 100
e 21 105
e 21 109
e 21 111
e 21 119
e 21 162
e 21 173
e 21 178
e 21 215
e 21 221
e 21 224
e 21 231
e 21 232
e 21 233
e 22 24
e 22 25
e 22 31
e 22 50
e 22 67
e 22 68
e 22 70
e 22 74
e 22 75
e 22 81
e 22 88
e 22 95
e 22 104
e 22 119
e 22 130
e 22 134
e 22 151
e 22 155
e 22 169
e 22 176
e 22 201
e 22 217
e 22 232
e 22 241
e 22 243
e 22 244
e 22 246
e 23 32
e 23 58
e 23 69
e 23 72
e 23 74
e 23 86
e 23 113
e 23 124
e 23 128
e 23 151
e 23 168
e 23 192
e 23 205
e 23 217
e 23 222
e 23 234
e 24 26
e 24 30
e 24 39
e 24 46
e 24 49
e 24 65
e 24 66
e 24 106
e 24 113
e 24 119
e 24 123
e 24 151
e 24 170
e 24 176
e 24 182
e 24 207
e 24 228
e 24 243
e 24 244
e 25 28
e 25 41
e 25 46
e 25 47
e 25 106
e 25 118
e 25 120
e 25 134
e 25 153
e 25 160
e 25 168
e 25 173
e 25 181
e 25 183
e 25 187
e 25 190
e 25 198
e 25 199
e 25 202
e 25 205
e 25 207
e 25 212
e 25 219
e 25 220
e 25 229
e 25 248
e 26 31
e 26 32
e 26 33
e 26 46
e 26 53
e 26 57
e 26 58
e 26 64
e 26 95
e 26 100
e 26 109
e 26 125
e 26 135
e 26 136
e 26 147
e 26 148
e 26 162
e 26 167
e 26 176
e 26 183
e 26 192
e 26 197
e 26 204
e 26 206
e 26 209
e 26 227
e 26 233
e 27 32
e 27 45
e 27 50
e 27 71
e 27 94
e 27 129
e 27 135
e 27 137
e 27 143
e 27 144
e 27 148
e 27 155
e 27 167
e 27 178
e 27 182
e 27 187
e 27 206
e 27 212
e 27 216
e 27 222
e 27 225
e 28 40
e 28 44
e 28 58
e 28 64
e 28 84
e 28 87
e 28 89
e 28 96
e 28 114
e 28 115
e 28 120
e 28 129
e 28 136
e 28 183
e 28 184
e 28 197
e 28 215
e 28 219
e 28 225
e 28 230
e 28 233
e 29 40
e 29 48
e 29 70
e 29 73
e 29 96
e 29 104
e 29 110
e 29 116
e 29 125
e 29 133
e 29 136
e 29 158
e 29 169
e 29 178
e 29 202
e 29 219
e 29 247
e 30 32
e 30 49
e 30 57
e 30 58
e 30 70
e 30 71
e 30 74
e 30 100
e 30 109
e 30 115
e 30 128
e 30 133
e 30 137
e 30 148
e 30 150
e 30 167
e 30 168
e 30 172
e 30 190
e 30 198
e 30 228
e 30 231
e 30 235
e 30 236
e 30 243
e 31 32
e 31 59
e 31 62
e 31 77
e 31 80
e 31 87
e 31 105
e 31 106
e 31 123
e 31 132
e 31 159
e 31 162
e 31 167
e 31 169
e 31 181
e 31 191
e 31 192
e 31 204
e 31 216
e 31 233
e 31 245
e 31 246
e 32 44
e 32 50
e 32 53
e 32 65
e 32 73
e 32 78
e 32 83
e 32 112
e 32 114
e 32 119
e 32 127
e 32 132
e 32 135
e 32 164
e 32 168
e 32 172
e 32 192
e 32 212
e 32 237
e 32 241
e 33 34
e 33 40
e 33 49
e 33 55
e 33 57
e 33 59
e 33 80
e 33 87
e 33 96
e 33 99
e 33 110
e 33 124
e 33 131
e 33 143
e 33 148
e 33 151
e 33 163
e 33 167
e 33 183
e 33 185
e 33 195
e 33 204
e 33 217
e 33 225
e 33 227
e 33 230
e 33 238
e 34 35
e 34 54
e 34 69
e 34 70
e 34 105
e 34 107
e 34 114
e 34 118
e 34 124
e 34 154
e 34 161
e 34 165
e 34 171
e 34 183
e 34 199
e 34 216
e 34 218
e 34 221
e 34 222
e 34 233
e 34 234
e 34 237
e 34 238
e 34 240
e 34 242
e 35 40
e 35 43
e 35 44
e 35 47
e 35 61
e 35 95
e 35 97
e 35 99
e 35 101
e 35 102
e 35 117
e 35 134
e 35 142
e 35 155
e 35 165
e 35 171
e 35 183
e 35 203
e 35 222
e 35 229
e 35 234
e 35 242
e 35 245
e 35 246
e 36 41
e 36 48
e 36 59
e 36 61
e 36 117
e 36 122
e 36 129
e 36 132
e 36 135
e 36 140
e 36 142
e 36 162
e 36 164
e 36 166
e 36 169
e 36 180
e 36 187
e 36 205
e 36 241
e 36 246
e 37 58
e 37 72
e 37 83
e 37 91
e 37 101
e 37 119
e 37 123
e 37 126
e 37 137
e 37 149
e 37 152
e 37 153
e 37 176
e 37 187
e 37 193
e 37 199
e 37 224
e 37 231
e 37 237
e 38 73
e 38 79
e 38 80
e 38 81
e 38 99
e 38 116
e 38 130
e 38 131
e 38 144
e 38 156
e 38 168
e 38 184
e 38 186
e 38 188
e 38 192
e 38 193
e 38 231
e 38 233
e 38 234
e 38 244
e 39 44
e 39 87
e 39 90
e 39 122
e 39 127
e 39 134
e 39 140
e 39 164
e 39 166
e 39 183
e 39 216
e 39 246
e 40 54
e 40 61
e 40 62
e 40 70
e 40 73
e 40 78
e 40 81
e 40 102
e 40 124
e 40 150
e 40 171
e 40 173
e 40 174
e 40 182
e 40 183
e 40 185
e 40 188
e 40 189
e 40 193
e 40 204
e 40 223
e 40 243
e 40 249
e 41 50
e 41 61
e 41 68
e 41 129
e 41 154
e 41 170
e 41 172
e 41 190
e 41 195
e 41 198
e 41 215
e 41 225
e 41 226
e 41 228
e 41 242
e 42 77
e 42 78
e 42 79
e 42 87
e 42 110
e 42 114
e 42 142
e 42 143
e 42 144
e 42 146
e 42 151
e 42 161
e 42 162
e 42 166
e 42 168
e 42 171
e 42 176
e 42 182
e 42 185
e 42 208
e 42 223
e 42 238
e 43 48
e 43 68
e 43 69
e 43 71
e 43 72
e 43 80
e 43 84
e 43 97
e 43 107
e 43 117
e 43 119
e 43 122
e 43 124
e 43 129
e 43 138
e 43 141
e 43 156
e 43 177
e 43 178
e 43 179
e 43 186
e 43 195
e 43 204
e 43 208
e 43 210
e 43 216
e 43 222
e 44 55
e 44 56
e 44 63
e 44 75
e 44 87
e 44 108
e 44 122
e 44 139
e 44 141
e 44 148
e 44 178
e 44 186
e 44 188
e 44 192
e 44 226
e 44 229
e 45 73
e 45 79
e 45 89
e 45 101
e 45 123
e 45 145
e 45 147
e 45 150
e 45 152
e 45 156
e 45 164
e 45 166
e 45 167
e 45 175
e 45 186
e 45 190
e 45 232
e 45 234
e 45 239
e 46 48
e 46 54
e 46 63
e 46 67
e 46 80
e 46 88
e 46 93
e 46 94
e 46 102
e 46 103
e 46 104
e 46 113
e 46 127
e 46 128
e 46 141
e 46 160
e 46 172
e 46 210
e 46 213
e 46 242
e 46 243
e 46 246
e 47 54
e 47 100
e 47 101
e 47 107
e 47 117
e 47 133
e 47 147
e 47 150
e 47 158
e 47 170
e 47 177
e 47 186
e 47 195
e 47 209
e 47 215
e 47 221
e 47 229
e 47 235
e 48 49
e 48 67
e 48 83
e 48 101
e 48 109
e 48 131
e 48 147
e 48 192
e 48 202
e 48 239
e 49 57
e 49 60
e 49 61
e 49 65
e 49 85
e 49 89
e 49 94
e 49 99
e 49 117
e 49 123
e 49 145
e 49 155
e 49 161
e 49 162
e 49 166
e 49 167
e 49 168
e 49 173
e 49 178
e 49 182
e 49 214
e 49 216
e 49 244
e 50 57
e 50 61
e 50 69
e 50 94
e 50 135
e 50 141
e 50 144
e 50 151
e 50 186
e 50 190
e 50 198
e 50 216
e 50 226
e 51 61
e 51 86
e 51 99
e 51 102
e 51 109
e 51 122
e 51 124
e 51 125
e 51 129
e 51 147
e 51 151
e 51 169
e 51 214
e 51 227
e 51 232
e 52 65
e 52 76
e 52 78
e 52 129
e 52 147
e 52 154
e 52 159
e 52 182
e 52 195
e 52 199
e 52 205
e 52 208
e 52 220
e 52 236
e 52 239
e 53 61
e 53 75
e 53 77
e 53 88
e 53 97
e 53 100
e 53 102
e 53 122
e 53 124
e 53 135
e 53 149
e 53 158
e 53 161
e 53 165
e 53 179
e 53 186
e 53 198
e 53 202
e 53 214
e 53 236
e 53 242
e 53 245
e 54 63
e 54 64
e 54 71
e 54 76
e 54 78
e 54 84
e 54 95
e 54 104
e 54 111
e 54 115
e 54 119
e 54 132
e 54 145
e 54 146
e 54 154
e 54 163
e 54 168
e 54 179
e 54 187
e 54 188
e 54 212
e 54 243
e 55 91
e 55 114
e 55 119
e 55 125
e 55 131
e 55 151
e 55 164
e 55 172
e 55 177
e 55 185
e 55 188
e 55 191
e 55 192
e 55 205
e 55 219
e 55 237
e 55 238
e 55 239
e 56 59
e 56 61
e 56 86
e 56 94
e 56 98
e 56 100
e 56 117
e 56 119
e 56 126
e 56 136
e 56 154
e 56 176
e 56 177
e 56 196
e 56 222
e 57 68
e 57 78
e 57 90
e 57 103
e 57 114
e 57 127
e 57 164
e 57 176
e 57 178
e 57 202
e 57 248
e 58 98
e 58 107
e 58 114
e 58 117
e 58 121
e 58 124
e 58 143
e 58 146
e 58 149
e 58 153
e 58 155
e 58 165
e 58 170
e 58 187
e 58 200
e 58 204
e 58 226
e 58 228
e 58 232
e 59 62
e 59 115
e 59 116
e 59 123
e 59 135
e 59 139
e 59 152
e 59 153
e 59 155
e 59 183
e 59 185
e 59 187
e 59 195
e 59 198
e 59 212
e 59 227
e 59 241
e 60 63
e 60 64
e 60 67
e 60 73
e 60 85
e 60 94
e 60 125
e 60 129
e 60 135
e 60 145
e 60 159
e 60 166
e 60 172
e 60 174
e 60 178
e 60 188
e 60 193
e 60 197
e 60 205
e 60 224
e 60 225
e 60 226
e 60 232
e 60 235
e 60 238
e 60 244
e 60 245
e 61 77
e 61 92
e 61 97
e 61 101
e 61 112
e 61 135
e 61 146
e 61 155
e 61 156
e 61 161
e 61 167
e 61 171
e 61 180
e 61 190
e 61 205
e 61 227
e 61 236
e 61 239
e 62 64
e 62 67
e 62 98
e 62 107
e 62 134
e 62 144
e 62 146
e 62 159
e 62 161
e 62 168
e 62 185
e 62 200
e 62 220
e 62 237
e 62 239
e 62 248
e 63 72
e 63 80
e 63 81
e 63 82
e 63 89
e 63 98
e 63 103
e 63 127
e 63 132
e 63 141
e 63 144
e 63 147
e 63 164
e 63 198
e 63 211
e 63 242
e 64 78
e 64 97
e 64 99
e 64 100
e 64 105
e 64 114
e 64 131
e 64 142
e 64 179
e 64 207
e 64 220
e 64 224
e 65 69
e 65 86
e 65 89
e 65 101
e 65 115
e 65 121
e 65 127
e 65 128
e 65 136
e 65 143
e 65 145
e 65 152
e 65 155
e 65 158
e 65 166
e 65 177
e 65 192
e 65 197
e 65 204
e 65 208
e 65 218
e 66 70
e 66 71
e 66 80
e 66 95
e 66 98
e 66 101
e 66 132
e 66 144
e 66 155
e 66 160
e 66 181
e 66 188
e 66 196
e 66 207
e 66 217
e 66 222
e 66 235
e 66 241
e 66 245
e 66 248
e 67 88
e 67 101
e 67 111
e 67 114
e 67 121
e 67 126
e 67 138
e 67 147
e 67 153
e 67 164
e 67 170
e 67 178
e 67 191
e 67 194
e 67 249
e 68 77
e 68 98
e 68 112
e 68 129
e 68 143
e 68 149
e 68 154
e 68 161
e 68 163
e 68 166
e 68 167
e 68 205
e 68 209
e 68 224
e 68 241
e 68 247
e 69 71
e 69 77
e 69 80
e 69 81
e 69 123
e 69 125
e 69 132
e 69 155
e 69 177
e 69 190
e 69 204
e 69 208
e 69 210
e 69 217
e 69 220
e 69 228
e 69 242
e 70 72
e 70 91
e 70 93
e 70 106
e 70 111
e 70 112
e 70 125
e 70 157
e 70 162
e 70 166
e 70 199
e 70 204
e 70 206
e 70 207
e 70 211
e 70 212
e 70 237
e 70 238
e 71 74
e 71 84
e 71 90
e 71 92
e 71 103
e 71 124
e 71 125
e 71 147
e 71 149
e 71 153
e 71 187
e 71 188
e 71 193
e 71 212
e 71 220
e 71 230
e 71 245
e 72 81
e 72 88
e 72 98
e 72 103
e 72 130
e 72 140
e 72 146
e 72 163
e 72 198
e 72 203
e 72 229
e 73 84
e 73 96
e 73 106
e 73 110
e 73 115
e 73 120
e 73 133
e 73 151
e 73 159
e 73 171
e 73 173
e 73 188
e 73 209
e 73 214
e 73 216
e 73 234
e 73 243
e 73 245
e 73 248
e 74 75
e 74 83
e 74 97
e 74 104
e 74 117
e 74 129
e 74 136
e 74 143
e 74 161
e 74 163
e 74 182
e 74 203
e 74 208
e 74 225
e 74 249
e 75 87
e 75 95
e 75 100
e 75 101
e 75 103
e 75 112
e 75 133
e 75 145
e 75 148
e 75 167
e 75 174
e 75 182
e 75 190
e 75 191
e 75 192
e 75 198
e 75 205
e 75 230
e 75 236
e 75 241
e 75 244
e 76 84
e 76 85
e 76 87
e 76 101
e 76 108
e 76 123
e 76 128
e 76 161
e 76 178
e 76 184
e 76 191
e 77 80
e 77 100
e 77 116
e 77 117
e 77 126
e 77 132
e 77 136
e 77 139
e 77 148
e 77 168
e 77 179
e 77 195
e 77 196
e 77 197
e 77 198
e 77 208
e 77 216
e 77 226
e 77 244
e 78 92
e 78 96
e 78 120
e 78 133
e 78 170
e 78 172
e 78 179
e 78 186
e 78 195
e 78 203
e 78 229
e 78 240
e 78 245
e 79 86
e 79 101
e 79 104
e 79 109
e 79 123
e 79 124
e 79 134
e 79 139
e 79 156
e 79 164
e 79 177
e 79 178
e 79 179
e 79 192
e 79 194
e 79 204
e 79 210
e 79 219
e 79 222
e 79 229
e 80 82
e 80 85
e 80 99
e 80 106
e 80 107
e 80 108
e 80 116
e 80 130
e 80 170
e 80 171
e 80 180
e 80 185
e 80 190
e 80 207
e 80 209
e 80 215
e 80 227
e 80 231
e 80 247
e 81 85
e 81 86
e 81 91
e 81 104
e 81 109
e 81 110
e 81 132
e 81 135
e 81 141
e 81 146
e 81 157
e 81 158
e 81 160
e 81 163
e 81 196
e 81 209
e 81 235
e 81 241
e 82 97
e 82 111
e 82 113
e 82 116
e 82 117
e 82 124
e 82 139
e 82 151
e 82 155
e 82 169
e 82 177
e 82 195
e 82 202
e 82 204
e 82 214
e 82 218
e 82 232
e 83 84
e 83 104
e 83 134
e 83 148
e 83 157
e 83 159
e 83 162
e 83 166
e 83 170
e 83 192
e 83 193
e 83 195
e 83 202
e 83 213
e 83 225
e 83 232
e 83 234
e 83 249
e 84 101
e 84 126
e 84 129
e 84 136
e 84 140
e 84 153
e 84 162
e 84 176
e 84 183
e 84 185
e 84 189
e 84 202
e 84 214
e 84 216
e 84 224
e 84 229
e 85 87
e 85 101
e 85 116
e 85 133
e 85 164
e 85 167
e 85 168
e 85 180
e 85 194
e 85 198
e 85 202
e 85 213
e 85 214
e 85 223
e 85 228
e 85 241
e 86 107
e 86 118
e 86 122
e 86 135
e 86 152
e 86 167
e 86 201
e 86 202
e 86 209
e 86 217
e 86 240
e 86 242
e 86 247
e 87 99
e 87 101
e 87 117
e 87 118
e 87 120
e 87 127
e 87 138
e 87 143
e 87 156
e 87 181
e 87 183
e 87 186
e 87 190
e 87 192
e 87 205
e 87 212
e 87 217
e 87 225
e 87 235
e 87 236
e 87 243
e 87 245
e 88 93
e 88 94
e 88 98
e 88 119
e 88 128
e 88 158
e 88 161
e 88 173
e 88 180
e 88 182
e 88 185
e 88 196
e 88 215
e 88 221
e 88 225
e 88 236
e 89 92
e 89 98
e 89 100
e 89 106
e 89 116
e 89 135
e 89 150
e 89 157
e 89 159
e 89 160
e 89 161
e 89 162
e 89 175
e 89 184
e 89 190
e 89 194
e 89 196
e 89 202
e 89 207
e 89 227
e 89 234
e 89 246
e 90 98
e 90 104
e 90 106
e 90 109
e 90 145
e 90 147
e 90 161
e 90 180
e 90 184
e 90 194
e 90 244
e 91 94
e 91 122
e 91 166
e 91 172
e 91 182
e 91 191
e 91 203
e 91 213
e 91 215
e 91 231
e 91 232
e 91 246
e 92 108
e 92 137
e 92 141
e 92 155
e 92 159
e 92 168
e 92 189
e 92 205
e 92 212
e 92 222
e 92 227
e 92 242
e 93 95
e 93 105
e 93 113
e 93 143
e 93 160
e 93 162
e 93 169
e 93 173
e 93 177
e 93 180
e 93 187
e 93 193
e 93 222
e 94 110
e 94 128
e 94 150
e 94 155
e 94 163
e 94 170
e 94 172
e 94 178
e 94 179
e 94 190
e 94 202
e 94 211
e 94 213
e 94 224
e 94 232
e 94 240
e 94 245
e 94 248
e 95 100
e 95 111
e 95 116
e 95 119
e 95 143
e 95 153
e 95 166
e 95 191
e 95 197
e 95 222
e 95 240
e 95 244
e 96 100
e 96 114
e 96 115
e 96 121
e 96 125
e 96 150
e 96 168
e 96 169
e 96 170
e 96 172
e 96 190
e 96 195
e 96 199
e 96 202
e 96 206
e 96 220
e 96 223
e 96 225
e 96 226
e 96 232
e 96 235
e 96 237
e 96 238
e 96 244
e 97 101
e 97 112
e 97 113
e 97 144
e 97 146
e 97 149
e 97 156
e 97 159
e 97 167
e 97 168
e 97 173
e 97 177
e 97 185
e 97 189
e 97 192
e 97 216
e 97 228
e 97 232
e 97 233
e 98 103
e 98 124
e 98 125
e 98 126
e 98 130
e 98 151
e 98 152
e 98 179
e 98 191
e 98 193
e 98 211
e 98 217
e 98 233
e 98 238
e 99 100
e 99 107
e 99 113
e 99 126
e 99 155
e 99 165
e 99 180
e 99 185
e 99 191
e 99 193
e 99 196
e 99 198
e 99 206
e 99 214
e 99 234
e 99 244
e 99 246
e 100 126
e 100 155
e 100 161
e 100 163
e 100 170
e 100 181
e 100 191
e 100 193
e 100 196
e 100 211
e 100 244
e 101 126
e 101 162
e 101 167
e 101 178
e 101 186
e 101 187
e 101 193
e 101 195
e 101 213
e 101 215
e 101 220
e 101 227
e 101 229
e 101 235
e 101 237
e 101 238
e 102 106
e 102 124
e 102 132
e 102 134
e 102 140
e 102 154
e 102 165
e 102 173
e 102 182
e 102 203
e 102 217
e 102 222
e 102 226
e 102 232
e 102 237
e 102 240
e 102 242
e 102 248
e 103 104
e 103 109
e 103 110
e 103 112
e 103 118
e 103 120
e 103 124
e 103 126
e 103 131
e 103 139
e 103 155
e 103 156
e 103 160
e 103 161
e 103 194
e 103 196
e 103 203
e 103 206
e 103 208
e 103 214
e 103 216
e 103 226
e 103 241
e 104 121
e 104 127
e 104 135
e 104 137
e 104 165
e 104 178
e 104 182
e 104 185
e 104 200
e 104 205
e 104 225
e 105 139
e 105 165
e 105 171
e 105 175
e 105 178
e 105 180
e 105 181
e 105 190
e 105 192
e 105 222
e 105 231
e 105 232
e 106 120
e 106 127
e 106 145
e 106 159
e 106 170
e 106 173
e 106 188
e 106 202
e 106 221
e 106 230
e 106 237
e 107 128
e 107 135
e 107 138
e 107 157
e 107 175
e 107 200
e 107 213
e 107 224
e 107 236
e 108 110
e 108 121
e 108 129
e 108 138
e 108 142
e 108 147
e 108 158
e 108 163
e 108 168
e 108 202
e 108 229
e 108 242
e 109 115
e 109 122
e 109 126
e 109 131
e 109 164
e 109 169
e 109 170
e 109 173
e 109 186
e 109 187
e 109 189
e 109 201
e 109 206
e 109 222
e 109 224
e 109 231
e 109 247
e 110 115
e 110 117
e 110 140
e 110 150
e 110 166
e 110 169
e 110 172
e 110 174
e 110 183
e 110 194
e 110 207
e 110 219
e 110 221
e 110 228
e 110 232
e 110 235
e 110 237
e 111 115
e 111 124
e 111 125
e 111 130
e 111 137
e 111 139
e 111 148
e 111 158
e 111 162
e 111 187
e 111 197
e 111 200
e 111 202
e 111 218
e 111 224
e 111 232
e 111 242
e 111 246
e 112 118
e 112 119
e 112 126
e 112 141
e 112 157
e 112 161
e 112 168
e 112 183
e 112 185
e 112 187
e 112 194
e 112 197
e 112 213
e 112 221
e 112 229
e 112 235
e 112 247
e 113 114
e 113 115
e 113 124
e 113 128
e 113 140
e 113 147
e 113 159
e 113 163
e 113 168
e 113 180
e 113 185
e 113 190
e 113 192
e 113 197
e 113 202
e 113 207
e 113 208
e 113 216
e 113 229
e 113 233
e 114 143
e 114 154
e 114 164
e 114 168
e 114 169
e 114 186
e 114 195
e 114 198
e 114 213
e 114 230
e 114 233
e 114 236
e 114 237
e 114 241
e 115 130
e 115 152
e 115 168
e 115 170
e 115 178
e 115 191
e 115 192
e 115 193
e 115 194
e 115 208
e 115 211
e 115 234
e 116 128
e 116 133
e 116 137
e 116 141
e 116 157
e 116 158
e 116 180
e 116 181
e 116 183
e 116 200
e 116 201
e 116 209
e 116 227
e 116 235
e 116 241
e 117 123
e 117 129
e 117 148
e 117 150
e 117 151
e 117 152
e 117 160
e 117 174
e 117 183
e 117 187
e 117 192
e 117 231
e 117 233
e 117 248
e 118 121
e 118 127
e 118 130
e 118 152
e 118 163
e 118 164
e 118 186
e 118 199
e 118 203
e 118 204
e 118 208
e 118 242
e 119 129
e 119 142
e 119 146
e 119 149
e 119 155
e 119 175
e 119 181
e 119 191
e 119 223
e 119 229
e 119 230
e 119 239
e 120 133
e 120 136
e 120 169
e 120 179
e 120 208
e 120 217
e 120 221
e 120 230
e 120 239
e 120 240
e 121 122
e 121 131
e 121 134
e 121 145
e 121 167
e 121 170
e 121 175
e 121 182
e 121 189
e 121 193
e 121 202
e 121 206
e 121 211
e 121 224
e 121 235
e 121 242
e 121 246
e 122 126
e 122 128
e 122 135
e 122 144
e 122 161
e 122 164
e 122 165
e 122 166
e 122 185
e 122 192
e 122 195
e 122 196
e 122 206
e 122 233
e 122 243
e 123 133
e 123 149
e 123 153
e 123 164
e 123 187
e 123 204
e 123 234
e 123 242
e 123 243
e 124 128
e 124 145
e 124 161
e 124 164
e 124 167
e 124 169
e 124 172
e 124 181
e 124 214
e 124 220
e 124 248
e 125 131
e 125 142
e 125 143
e 125 146
e 125 162
e 125 171
e 125 186
e 125 191
e 125 196
e 125 216
e 125 233
e 125 235
e 125 248
e 126 135
e 126 147
e 126 154
e 126 193
e 126 203
e 126 216
e 127 128
e 127 169
e 127 172
e 127 173
e 127 174
e 127 200
e 127 244
e 127 245
e 128 156
e 128 162
e 128 195
e 128 211
e 128 222
e 129 130
e 129 136
e 129 142
e 129 143
e 129 153
e 129 179
e 129 197
e 129 202
e 129 208
e 129 214
e 129 231
e 129 240
e 129 245
e 130 153
e 130 174
e 130 184
e 130 194
e 130 196
e 130 200
e 130 203
e 130 210
e 130 214
e 130 226
e 130 248
e 131 157
e 131 169
e 131 221
e 131 223
e 131 224
e 131 227
e 131 236
e 131 238
e 131 242
e 132 145
e 132 150
e 132 151
e 132 154
e 132 160
e 132 173
e 132 183
e 132 193
e 132 196
e 132 203
e 132 216
e 132 218
e 132 241
e 133 139
e 133 149
e 133 154
e 133 161
e 133 172
e 133 186
e 133 191
e 133 194
e 133 230
e 133 233
e 133 241
e 134 136
e 134 138
e 134 142
e 134 143
e 134 144
e 134 151
e 134 156
e 134 161
e 134 193
e 134 203
e 134 212
e 134 213
e 134 215
e 134 236
e 134 241
e 134 249
e 135 150
e 135 151
e 135 174
e 135 183
e 135 195
e 135 198
e 135 222
e 135 223
e 135 229
e 135 230
e 135 241
e 136 144
e 136 162
e 136 169
e 136 184
e 136 187
e 136 191
e 136 220
e 136 240
e 137 143
e 137 145
e 137 158
e 137 166
e 137 174
e 137 186
e 137 208
e 137 235
e 137 238
e 137 243
e 137 247
e 138 147
e 138 158
e 138 179
e 138 182
e 138 198
e 138 233
e 138 236
e 138 239
e 138 248
e 139 146
e 139 151
e 139 173
e 139 174
e 139 196
e 139 205
e 139 215
e 139 220
e 139 226
e 139 236
e 139 242
e 140 158
e 140 160
e 140 166
e 140 168
e 140 201
e 140 209
e 140 219
e 140 220
e 140 221
e 140 227
e 140 230
e 140 239
e 140 241
e 140 243
e 140 248
e 141 146
e 141 150
e 141 154
e 141 157
e 141 158
e 141 162
e 141 187
e 141 194
e 141 199
e 141 200
e 141 206
e 141 215
e 141 237
e 141 246
e 141 247
e 142 145
e 142 146
e 142 150
e 142 155
e 142 163
e 142 176
e 142 182
e 142 189
e 142 193
e 142 201
e 142 206
e 142 215
e 142 221
e 142 234
e 142 238
e 143 145
e 143 154
e 143 161
e 143 185
e 143 199
e 143 205
e 143 207
e 143 209
e 143 217
e 143 218
e 143 222
e 143 239
e 143 242
e 144 147
e 144 157
e 144 163
e 144 169
e 144 175
e 144 180
e 144 201
e 144 214
e 144 240
e 145 147
e 145 149
e 145 152
e 145 167
e 145 180
e 145 193
e 145 215
e 145 224
e 145 227
e 145 230
e 145 239
e 145 242
e 145 247
e 146 160
e 146 188
e 146 206
e 146 221
e 146 231
e 146 237
e 147 167
e 147 197
e 147 212
e 147 213
e 147 234
e 147 237
e 148 149
e 148 165
e 148 179
e 148 183
e 148 184
e 148 209
e 148 214
e 148 216
e 148 218
e 148 225
e 148 234
e 148 237
e 148 242
e 149 160
e 149 161
e 149 176
e 149 179
e 149 180
e 149 186
e 149 189
e 149 205
e 149 206
e 149 210
e 149 211
e 149 216
e 149 221
e 150 162
e 150 177
e 150 218
e 150 226
e 150 248
e 151 152
e 151 172
e 151 195
e 151 200
e 151 210
e 151 218
e 151 229
e 151 249
e 152 161
e 152 171
e 152 179
e 152 190
e 152 193
e 152 195
e 152 216
e 152 220
e 152 225
e 152 232
e 152 234
e 152 244
e 153 161
e 153 177
e 153 204
e 153 213
e 153 230
e 153 234
e 153 235
e 154 167
e 154 191
e 154 211
e 154 215
e 154 244
e 155 163
e 155 166
e 155 198
e 155 212
e 155 233
e 156 158
e 156 167
e 156 178
e 156 188
e 156 192
e 156 218
e 157 177
e 157 192
e 157 211
e 157 219
e 157 223
e 157 238
e 158 164
e 158 166
e 158 184
e 158 193
e 158 205
e 158 221
e 158 229
e 158 232
e 158 242
e 158 243
e 158 244
e 159 164
e 159 168
e 159 169
e 159 176
e 159 202
e 159 205
e 159 222
e 160 163
e 160 167
e 160 171
e 160 180
e 160 190
e 160 194
e 160 209
e 160 216
e 160 219
e 160 229
e 160 232
e 160 244
e 160 247
e 161 178
e 161 182
e 161 200
e 161 204
e 161 205
e 161 208
e 161 217
e 161 221
e 161 246
e 162 169
e 162 184
e 162 185
e 162 196
e 162 220
e 162 222
e 162 223
e 162 249
e 163 164
e 163 168
e 163 171
e 163 175
e 163 178
e 163 180
e 163 193
e 163 205
e 163 209
e 163 232
e 163 248
e 164 189
e 164 191
e 164 192
e 164 196
e 164 199
e 164 208
e 164 215
e 164 218
e 164 220
e 164 222
e 164 225
e 164 227
e 164 234
e 164 236
e 164 239
e 164 240
e 164 241
e 165 173
e 165 175
e 165 191
e 165 196
e 165 205
e 165 216
e 165 227
e 165 228
e 165 229
e 165 232
e 165 237
e 165 248
e 166 204
e 166 218
e 166 227
e 166 229
e 166 241
e 166 249
e 167 168
e 167 171
e 167 177
e 167 182
e 167 184
e 167 198
e 167 219
e 167 221
e 167 228
e 167 233
e 167 235
e 167 238
e 168 177
e 168 182
e 168 195
e 168 234
e 168 237
e 168 238
e 168 239
e 169 173
e 169 176
e 169 201
e 169 219
e 169 221
e 169 229
e 169 233
e 169 239
e 169 247
e 170 176
e 170 191
e 170 196
e 170 204
e 170 213
e 170 219
e 170 224
e 170 229
e 170 230
e 170 231
e 170 233
e 170 236
e 170 243
e 170 249
e 171 174
e 171 180
e 171 193
e 171 219
e 172 192
e 172 194
e 172 197
e 172 207
e 173 202
e 173 208
e 173 214
e 173 230
e 173 243
e 174 188
e 174 206
e 174 218
e 174 244
e 175 177
e 175 178
e 175 183
e 175 197
e 175 210
e 175 216
e 175 218
e 175 222
e 175 231
e 175 232
e 175 246
e 176 192
e 176 202
e 176 238
e 176 249
e 177 188
e 177 203
e 177 206
e 177 207
e 177 214
e 177 223
e 177 230
e 177 232
e 177 247
e 178 180
e 178 181
e 178 188
e 178 240
e 178 245
e 179 189
e 179 195
e 179 196
e 179 200
e 179 203
e 179 214
e 179 215
e 179 218
e 179 225
e 179 229
e 180 181
e 180 193
e 180 197
e 180 204
e 180 207
e 180 208
e 180 210
e 180 219
e 180 223
e 181 191
e 181 207
e 181 210
e 181 213
e 181 227
e 181 236
e 182 191
e 182 200
e 182 204
e 182 208
e 182 209
e 182 217
e 182 237
e 183 188
e 183 190
e 183 192
e 183 197
e 183 199
e 183 200
e 183 202
e 183 208
e 183 217
e 183 220
e 183 223
e 183 236
e 183 240
e 184 192
e 184 211
e 184 218
e 184 222
e 185 195
e 185 201
e 185 202
e 185 215
e 185 226
e 185 244
e 185 249
e 186 192
e 186 200
e 186 209
e 186 229
e 186 241
e 186 245
e 186 246
e 187 191
e 187 206
e 187 212
e 187 213
e 187 214
e 187 219
e 187 224
e 187 235
e 187 249
e 188 201
e 188 204
e 188 224
e 188 242
e 189 218
e 189 222
e 189 248
e 190 191
e 190 213
e 190 216
e 190 228
e 190 231
e 191 209
e 191 222
e 191 229
e 192 200
e 192 219
e 192 220
e 192 241
e 192 244
e 192 249
e 193 215
e 193 219
e 193 226
e 193 228
e 193 235
e 193 241
e 193 242
e 193 246
e 193 249
e 194 201
e 194 205
e 194 209
e 194 218
e 195 208
e 195 219
e 195 224
e 195 238
e 195 248
e 196 206
e 196 207
e 196 208
e 196 215
e 196 222
e 196 226
e 196 234
e 196 235
e 196 248
e 196 249
e 197 207
e 197 212
e 197 230
e 197 232
e 197 235
e 197 246
e 198 206
e 198 210
e 198 220
e 198 231
e 198 232
e 198 235
e 198 245
e 198 248
e 199 205
e 199 209
e 199 225
e 199 230
e 199 233
e 199 236
e 199 246
e 200 204
e 200 207
e 200 214
e 200 216
e 200 235
e 200 244
e 200 247
e 201 214
e 201 219
e 201 245
e 201 247
e 202 215
e 202 216
e 203 211
e 203 217
e 203 243
e 204 206
e 204 217
e 204 223
e 205 207
e 205 234
e 205 247
e 206 214
e 206 219
e 206 222
e 206 224
e 206 227
e 206 232
e 206 237
e 206 248
e 207 213
e 207 230
e 207 236
e 208 224
e 208 236
e 208 239
e 208 246
e 209 216
e 209 222
e 210 219
e 210 244
e 211 219
e 211 228
e 211 231
e 211 235
e 212 217
e 212 241
e 213 215
e 213 216
e 213 229
e 213 237
e 214 231
e 215 219
e 215 222
e 215 224
e 215 226
e 215 228
e 215 239
e 215 242
e 215 247
e 216 223
e 216 231
e 217 239
e 217 248
e 218 228
e 218 241
e 218 244
e 218 248
e 219 226
e 219 238
e 219 240
e 219 244
e 220 221
e 220 222
e 220 228
e 220 232
e 220 234
e 220 246
e 220 247
e 221 229
e 221 236
e 221 244
e 221 246
e 222 231
e 222 232
e 222 234
e 222 237
e 222 240
e 224 241
e 224 248
e 224 249
e 225 229
e 225 230
e 225 238
e 227 237
e 227 239
e 228 231
e 228 236
e 229 239
e 230 241
e 230 249
e 232 233
e 232 234
e 232 235
e 233 244
e 234 235
e 234 240
e 234 245
e 235 241
e 236 243
e 236 245
e 236 246
e 236 248
e 240 243
e 242 244
e 242 249
e 244 246
